c Random generated cnf formula, satisfiable: false
p cnf 10 50
7 -6 -2 0
-4 -10 -5 0
-2 9 6 0
-5 -4 3 0
-1 6 4 0
7 -4 9 0
-5 -1 -7 0
2 -6 -9 0
-10 -6 -3 0
-7 2 -9 0
-8 2 1 0
5 10 2 0
5 9 -1 0
-4 7 -8 0
6 2 3 0
6 -10 -7 0
3 -10 -2 0
-9 -5 6 0
-10 3 8 0
-2 9 1 0
5 -9 -1 0
-2 7 -10 0
-4 -6 -10 0
2 -6 -1 0
-10 -2 -6 0
-1 9 7 0
-4 -1 5 0
-4 1 9 0
2 -10 -4 0
-1 -6 9 0
2 9 5 0
10 -4 6 0
-2 3 -9 0
8 5 1 0
-9 6 5 0
-3 4 -5 0
3 -6 -2 0
-3 10 5 0
4 -6 -1 0
7 9 -3 0
8 5 10 0
2 9 -1 0
-1 7 6 0
-2 -5 1 0
-10 -7 9 0
-6 -10 -9 0
8 -2 1 0
-6 -5 -3 0
-3 -5 -7 0
-6 9 3 0
